1699.25
0 68 74 35 67 27 31 10 40 75 0
0 4 52 70 37 5 19 17 58 12 49 33 0
0 57 71 60 69 44 24 16 6 20 30 13 29 36 15 0
0 41 42 43 47 61 63 25 18 55 39 1 2 48 0
0 14 53 73 21 45 3 23 28 62 56 72 0
0 7 46 34 54 11 59 8 66 9 0
0 64 22 38 65 26 32 50 51 0
